40 390 
1 3 1
1 4 1
1 5 1
1 6 1
1 8 1
1 9 1
1 13 1
1 14 1
1 17 1
1 19 1
1 20 1
1 21 1
1 22 1
1 23 1
1 24 1
1 25 1
1 27 1
1 28 1
1 29 1
1 30 1
1 32 1
1 33 1
1 34 1
1 38 1
2 6 1
2 10 1
2 13 1
2 14 1
2 16 1
2 17 1
2 19 1
2 20 1
2 21 1
2 25 1
2 26 1
2 27 1
2 31 1
2 32 1
2 36 1
2 37 1
2 40 1
3 5 1
3 6 1
3 9 1
3 10 1
3 11 1
3 12 1
3 13 1
3 14 1
3 15 1
3 16 1
3 19 1
3 20 1
3 22 1
3 28 1
3 31 1
3 35 1
3 36 1
3 38 1
3 39 1
3 40 1
4 6 1
4 8 1
4 9 1
4 13 1
4 15 1
4 17 1
4 19 1
4 20 1
4 23 1
4 25 1
4 32 1
4 34 1
4 37 1
5 6 1
5 7 1
5 9 1
5 10 1
5 15 1
5 18 1
5 19 1
5 20 1
5 22 1
5 24 1
5 25 1
5 29 1
5 30 1
5 32 1
5 35 1
5 37 1
5 38 1
5 39 1
6 7 1
6 11 1
6 12 1
6 13 1
6 14 1
6 16 1
6 19 1
6 20 1
6 21 1
6 22 1
6 25 1
6 27 1
6 30 1
6 31 1
6 32 1
6 34 1
6 38 1
6 40 1
7 9 1
7 10 1
7 11 1
7 12 1
7 17 1
7 21 1
7 27 1
7 28 1
7 29 1
7 30 1
7 31 1
7 32 1
7 33 1
7 35 1
7 36 1
7 37 1
7 38 1
7 40 1
8 12 1
8 16 1
8 19 1
8 20 1
8 23 1
8 32 1
8 33 1
8 37 1
8 39 1
8 40 1
9 14 1
9 17 1
9 18 1
9 20 1
9 23 1
9 24 1
9 26 1
9 30 1
9 33 1
9 35 1
10 11 1
10 13 1
10 14 1
10 16 1
10 17 1
10 21 1
10 22 1
10 23 1
10 26 1
10 28 1
10 29 1
10 30 1
10 31 1
10 32 1
10 34 1
10 36 1
10 37 1
11 14 1
11 15 1
11 22 1
11 25 1
11 26 1
11 27 1
11 28 1
11 29 1
11 31 1
11 32 1
11 34 1
11 35 1
11 39 1
12 13 1
12 15 1
12 19 1
12 22 1
12 23 1
12 24 1
12 26 1
12 27 1
12 30 1
12 33 1
12 34 1
12 36 1
12 37 1
13 14 1
13 16 1
13 19 1
13 20 1
13 22 1
13 23 1
13 25 1
13 29 1
13 30 1
13 32 1
13 33 1
13 35 1
13 37 1
13 39 1
13 40 1
14 15 1
14 17 1
14 18 1
14 19 1
14 20 1
14 21 1
14 23 1
14 24 1
14 25 1
14 27 1
14 30 1
14 31 1
14 33 1
14 34 1
14 35 1
14 36 1
14 38 1
14 40 1
15 16 1
15 18 1
15 22 1
15 23 1
15 24 1
15 25 1
15 28 1
15 31 1
15 33 1
15 34 1
15 38 1
16 17 1
16 18 1
16 19 1
16 20 1
16 22 1
16 27 1
16 28 1
16 30 1
16 32 1
16 34 1
16 35 1
16 36 1
16 37 1
16 40 1
17 20 1
17 22 1
17 23 1
17 24 1
17 26 1
17 29 1
17 32 1
17 33 1
17 34 1
17 35 1
17 37 1
17 38 1
18 21 1
18 25 1
18 27 1
18 29 1
18 31 1
18 32 1
18 33 1
18 35 1
18 36 1
18 40 1
19 20 1
19 21 1
19 22 1
19 23 1
19 31 1
19 32 1
19 33 1
19 34 1
19 35 1
19 37 1
19 40 1
20 21 1
20 22 1
20 23 1
20 24 1
20 25 1
20 32 1
20 33 1
20 34 1
20 37 1
20 39 1
20 40 1
21 22 1
21 23 1
21 25 1
21 26 1
21 27 1
21 28 1
21 31 1
21 32 1
21 34 1
21 38 1
22 26 1
22 29 1
22 34 1
22 35 1
22 36 1
22 37 1
22 38 1
23 24 1
23 26 1
23 27 1
23 28 1
23 29 1
23 31 1
23 32 1
23 33 1
23 34 1
23 39 1
24 27 1
24 28 1
24 29 1
24 30 1
24 31 1
24 32 1
24 33 1
24 34 1
24 36 1
24 37 1
24 39 1
24 40 1
25 27 1
25 29 1
25 32 1
25 35 1
25 37 1
26 27 1
26 28 1
26 30 1
26 37 1
26 38 1
26 40 1
27 28 1
27 29 1
27 30 1
27 31 1
27 32 1
27 33 1
27 36 1
27 38 1
27 40 1
28 30 1
28 31 1
28 34 1
28 35 1
28 36 1
28 39 1
29 34 1
29 35 1
29 39 1
30 33 1
30 35 1
30 36 1
30 38 1
31 32 1
31 36 1
31 37 1
31 40 1
32 33 1
32 36 1
32 37 1
32 39 1
32 40 1
33 34 1
33 35 1
33 38 1
33 39 1
33 40 1
34 35 1
34 37 1
34 40 1
35 36 1
35 37 1
36 37 1
36 38 1
36 39 1
37 38 1
38 39 1
38 40 1
